$rem
jobtype               sp
correlation           rasci
basis                 cc-pvdz
unrestricted          false
mem_total             80000
mem_static            40000
ras_roots             40
ras_act               8
ras_elec              8
ras_occ               288
ras_spin_mult         1
RAS_AMPL_PRINT        0
RAS_NATORB            true
SCF_ALGORITHM         DIIS
GUI                   2
set_iter              300
ADC_DAVIDSON_MAXITER  300
max_scf_cycles        300
scf_convergence       8
$end


$molecule
0 1
 C                  4.68185500    3.17375500    0.21045300
 C                  3.70857700    3.16922700    1.22034800
 H                  5.47513000    2.70879800    0.35014400
 C                  4.50028600    3.85332300   -1.00142000
 C                  3.89918700    2.49513500    2.45199500
 C                  2.48605800    3.88823600    1.00142000
 C                  3.27776600    4.57233100   -1.22034800
 C                  5.48296100    3.82652000   -2.02261300
 C                  2.93462900    2.53282200    3.45059000
 H                  4.68459800    2.01850700    2.59436900
 C                  1.50338300    3.91503900    2.02261300
 C                  2.30448800    4.56780400   -0.21045300
 C                  3.08715600    5.24642400   -2.45199500
 H                  6.27483600    3.35978500   -1.88193400
 C                  5.28460300    4.48521400   -3.22460000
 C                  3.11769800    1.87514600    4.69918700
 C                  1.70174000    3.25634500    3.22460000
 H                  0.71150700    4.38177400    1.88193400
 H                  1.51121300    5.03276100   -0.35014400
 H                  2.30174500    5.72305200   -2.59436900
 C                  4.05171400    5.20873700   -3.45059000
 C                  6.25565200    4.47229000   -4.26556700
 C                  2.16166100    1.93772600    5.66247000
 H                  3.89953100    1.39651600    4.85723800
 C                  0.73069100    3.26926900    4.26556700
 C                  3.86864500    5.86641300   -4.69918700
 C                  6.02869500    5.10054100   -5.43930500
 H                  7.05954000    4.02318500   -4.13604700
 C                  0.95764800    2.64101800    5.43930500
 H                  2.30194400    1.51296300    6.47787100
 H                 -0.07319700    3.71837400    4.13604700
 H                  3.08681200    6.34504300   -4.85723800
 C                  4.82468200    5.80383200   -5.66247000
 H                  6.67289600    5.06908800   -6.10950700
 H                  0.31344800    2.67247100    6.10950700
 H                  4.68440000    6.22859600   -6.47787100
 H                  3.39306000    5.61094200    3.53166400
 C                  4.19239800    5.92432500    3.88985900
 C                  5.17661200    6.49788900    3.00708400
 C                  4.39752500    5.82762500    5.23167600
 C                  4.99852200    6.59765700    1.65537900
 C                  6.38673200    6.98665700    3.60737100
 C                  5.63091200    6.30826000    5.81077600
 H                  3.74336600    5.45254000    5.77574800
 C                  5.97918300    7.16981300    0.82204000
 H                  4.21036400    6.27991600    1.27755200
 C                  6.57595200    6.86288200    5.03393500
 C                  7.37109000    7.55193000    2.80369300
 H                  5.77129000    6.23317000    6.72674300
 C                  5.79387500    7.26237000   -0.57627500
 C                  7.21469500    7.66299300    1.41808900
 H                  7.36393100    7.17101200    5.41953100
 H                  8.15314800    7.86480500    3.19719800
 H                  5.00410800    6.94088600   -0.94802900
 C                  6.75799200    7.82012500   -1.41808900
 C                  8.17881200    8.22074700    0.57627500
 C                  6.60159700    7.93118800   -2.80369300
 C                  7.99350300    8.31330500   -0.82204000
 H                  8.96857800    8.54223100    0.94802900
 H                  5.81953900    7.61831200   -3.19719800
 C                  7.58595500    8.49646100   -3.60737100
 C                  8.97416400    8.88546000   -1.65537900
 C                  7.39673400    8.62023600   -5.03393500
 C                  8.79607400    8.98522900   -3.00708400
 H                  9.76232200    9.20320200   -1.27755200
 H                  6.60875500    8.31210500   -5.41953100
 C                  8.34177500    9.17485800   -5.81077600
 C                  9.78028900    9.55879200   -3.88985900
 H                  8.20139600    9.24994700   -6.72674300
 C                  9.57516200    9.65549200   -5.23167600
 H                 10.57962700    9.87217500   -3.53166400
 H                 10.22932000   10.03057700   -5.77574800
 H                  4.31362700    9.87217500   -3.53166400
 C                  3.51428900    9.55879200   -3.88985900
 C                  2.53007400    8.98522900   -3.00708400
 C                  3.30916200    9.65549200   -5.23167600
 C                  2.70816400    8.88546000   -1.65537900
 C                  1.31995500    8.49646100   -3.60737100
 C                  2.07577500    9.17485800   -5.81077600
 H                  3.96332100   10.03057700   -5.77574800
 C                  1.72750300    8.31330500   -0.82204000
 H                  3.49632200    9.20320200   -1.27755200
 C                  0.33559700    7.93118800   -2.80369300
 C                  1.13073400    8.62023600   -5.03393500
 H                  1.93539700    9.24994700   -6.72674300
 C                  1.91281200    8.22074700    0.57627500
 C                  0.49199200    7.82012500   -1.41808900
 H                 -0.44646100    7.61831200   -3.19719800
 H                  0.34275500    8.31210500   -5.41953100
 C                  0.94869500    7.66299300    1.41808900
 H                  2.70257900    8.54223100    0.94802900
 C                 -0.47212500    7.26237000   -0.57627500
 C                  1.10509000    7.55193000    2.80369300
 C                 -0.28681700    7.16981300    0.82204000
 H                 -1.26189200    6.94088600   -0.94802900
 H                  1.88714800    7.86480500    3.19719800
 C                  0.12073200    6.98665700    3.60737100
 C                 -1.26747800    6.59765700    1.65537900
 C                 -1.08938700    6.49788900    3.00708400
 C                  0.30995300    6.86288200    5.03393500
 H                 -2.05563500    6.27991600    1.27755200
 C                 -2.07360200    5.92432500    3.88985900
 H                  1.09793200    7.17101200    5.41953100
 C                 -0.63508800    6.30826000    5.81077600
 H                 -2.87294000    5.61094200    3.53166400
 C                 -1.86847500    5.82762500    5.23167600
 H                 -0.49471000    6.23317000    6.72674300
 H                 -2.52263400    5.45254000    5.77574800
 C                  6.00494700   12.22677300   -3.22460000
 C                  6.20330400   11.56807900   -2.02261300
 C                  4.77205800   12.95029500   -3.45059000
 C                  6.97599600   12.21384900   -4.26556700
 C                  5.22062900   11.59488200   -1.00142000
 H                  6.99517900   11.10134400   -1.88193400
 C                  3.80750000   12.98798300   -2.45199500
 C                  4.58898900   13.60797200   -4.69918700
 C                  6.74903900   12.84209900   -5.43930500
 H                  7.77988400   11.76474300   -4.13604700
 C                  5.40219900   10.91531400    0.21045300
 C                  3.99811000   12.31389000   -1.22034800
 H                  3.02208900   13.46461100   -2.59436900
 H                  3.80715600   14.08660100   -4.85723800
 C                  5.54502600   13.54539100   -5.66247000
 H                  7.39323900   12.81064700   -6.10950700
 C                  4.42892000   10.91078600    1.22034800
 H                  6.19547300   10.45035600    0.35014400
 C                  3.02483100   12.30936300   -0.21045300
 H                  5.40474300   13.97015500   -6.47787100
 C                  4.61953000   10.23669400    2.45199500
 C                  3.20640100   11.62979400    1.00142000
 H                  2.23155700   12.77432000   -0.35014400
 C                  3.65497300   10.27438100    3.45059000
 H                  5.40494100    9.76006500    2.59436900
 C                  2.22372600   11.65659700    2.02261300
 C                  3.83804100    9.61670500    4.69918700
 C                  2.42208400   10.99790300    3.22460000
 H                  1.43185100   12.12333300    1.88193400
 C                  2.88200500    9.67928500    5.66247000
 H                  4.61987500    9.13807500    4.85723800
 C                  1.45103400   11.01082800    4.26556700
 C                  1.67799200   10.38257700    5.43930500
 H                  3.02228700    9.25452100    6.47787100
 H                  0.64714700   11.45993300    4.13604700
 H                  1.03379100   10.41402900    6.10950700
$end
